# INCAR for Li/graphite calculations
 SYSTEM = Li-graphite
 ISTART = 0
 ICHARG = 2
 ENCUT = 520
 EDIFF = 1E-5
 NELMIN = 4
 NELMDL = 0
 ISMEAR = 0
 SIGMA = 0.05
 IBRION = -1
 NSW = 0
 ISIF = 2
 LREAL = Auto
 LWAVE = .FALSE.
 LCHARG = .FALSE.
 LVTOT = .FALSE.
 LVHAR = .FALSE.
 LELF = .FALSE.
 GGA = PE
 PREC = Accurate
 ALGO = Normal